p cnf 512 2848
-1 0
-9 0
-17 0
-25 0
-33 0
-41 0
-49 0
-57 0
-65 0
-73 0
-81 0
-89 0
-97 0
-105 0
-113 0
-121 0
-129 0
-137 0
-145 0
-153 0
-161 0
-169 0
-177 0
-185 0
-193 0
-201 0
-209 0
-217 0
-225 0
-233 0
-241 0
-249 0
-257 0
-265 0
-273 0
-281 0
-289 0
-297 0
-305 0
-313 0
-321 0
-329 0
-337 0
-345 0
-353 0
-361 0
-369 0
-377 0
-385 0
-393 0
-401 0
-409 0
-417 0
-425 0
-433 0
-441 0
-449 0
-457 0
-465 0
-473 0
-481 0
-489 0
-497 0
-505 0
2 5 6 8 0
-5 -2 0
-6 -2 0
-6 -5 0
-8 -2 0
-8 -5 0
-8 -6 0
3 5 7 8 0
-5 -3 0
-7 -3 0
-7 -5 0
-8 -3 0
-8 -5 0
-8 -7 0
4 6 7 8 0
-6 -4 0
-7 -4 0
-7 -6 0
-8 -4 0
-8 -6 0
-8 -7 0
10 13 14 16 0
-13 -10 0
-14 -10 0
-14 -13 0
-16 -10 0
-16 -13 0
-16 -14 0
11 13 15 16 0
-13 -11 0
-15 -11 0
-15 -13 0
-16 -11 0
-16 -13 0
-16 -15 0
12 14 15 16 0
-14 -12 0
-15 -12 0
-15 -14 0
-16 -12 0
-16 -14 0
-16 -15 0
18 21 22 24 0
-21 -18 0
-22 -18 0
-22 -21 0
-24 -18 0
-24 -21 0
-24 -22 0
19 21 23 24 0
-21 -19 0
-23 -19 0
-23 -21 0
-24 -19 0
-24 -21 0
-24 -23 0
20 22 23 24 0
-22 -20 0
-23 -20 0
-23 -22 0
-24 -20 0
-24 -22 0
-24 -23 0
26 29 30 32 0
-29 -26 0
-30 -26 0
-30 -29 0
-32 -26 0
-32 -29 0
-32 -30 0
27 29 31 32 0
-29 -27 0
-31 -27 0
-31 -29 0
-32 -27 0
-32 -29 0
-32 -31 0
28 30 31 32 0
-30 -28 0
-31 -28 0
-31 -30 0
-32 -28 0
-32 -30 0
-32 -31 0
34 37 38 40 0
-37 -34 0
-38 -34 0
-38 -37 0
-40 -34 0
-40 -37 0
-40 -38 0
35 37 39 40 0
-37 -35 0
-39 -35 0
-39 -37 0
-40 -35 0
-40 -37 0
-40 -39 0
36 38 39 40 0
-38 -36 0
-39 -36 0
-39 -38 0
-40 -36 0
-40 -38 0
-40 -39 0
42 45 46 48 0
-45 -42 0
-46 -42 0
-46 -45 0
-48 -42 0
-48 -45 0
-48 -46 0
43 45 47 48 0
-45 -43 0
-47 -43 0
-47 -45 0
-48 -43 0
-48 -45 0
-48 -47 0
44 46 47 48 0
-46 -44 0
-47 -44 0
-47 -46 0
-48 -44 0
-48 -46 0
-48 -47 0
50 53 54 56 0
-53 -50 0
-54 -50 0
-54 -53 0
-56 -50 0
-56 -53 0
-56 -54 0
51 53 55 56 0
-53 -51 0
-55 -51 0
-55 -53 0
-56 -51 0
-56 -53 0
-56 -55 0
52 54 55 56 0
-54 -52 0
-55 -52 0
-55 -54 0
-56 -52 0
-56 -54 0
-56 -55 0
58 61 62 64 0
-61 -58 0
-62 -58 0
-62 -61 0
-64 -58 0
-64 -61 0
-64 -62 0
59 61 63 64 0
-61 -59 0
-63 -59 0
-63 -61 0
-64 -59 0
-64 -61 0
-64 -63 0
60 62 63 64 0
-62 -60 0
-63 -60 0
-63 -62 0
-64 -60 0
-64 -62 0
-64 -63 0
66 69 70 72 0
-69 -66 0
-70 -66 0
-70 -69 0
-72 -66 0
-72 -69 0
-72 -70 0
67 69 71 72 0
-69 -67 0
-71 -67 0
-71 -69 0
-72 -67 0
-72 -69 0
-72 -71 0
68 70 71 72 0
-70 -68 0
-71 -68 0
-71 -70 0
-72 -68 0
-72 -70 0
-72 -71 0
74 77 78 80 0
-77 -74 0
-78 -74 0
-78 -77 0
-80 -74 0
-80 -77 0
-80 -78 0
75 77 79 80 0
-77 -75 0
-79 -75 0
-79 -77 0
-80 -75 0
-80 -77 0
-80 -79 0
76 78 79 80 0
-78 -76 0
-79 -76 0
-79 -78 0
-80 -76 0
-80 -78 0
-80 -79 0
82 85 86 88 0
-85 -82 0
-86 -82 0
-86 -85 0
-88 -82 0
-88 -85 0
-88 -86 0
83 85 87 88 0
-85 -83 0
-87 -83 0
-87 -85 0
-88 -83 0
-88 -85 0
-88 -87 0
84 86 87 88 0
-86 -84 0
-87 -84 0
-87 -86 0
-88 -84 0
-88 -86 0
-88 -87 0
90 93 94 96 0
-93 -90 0
-94 -90 0
-94 -93 0
-96 -90 0
-96 -93 0
-96 -94 0
91 93 95 96 0
-93 -91 0
-95 -91 0
-95 -93 0
-96 -91 0
-96 -93 0
-96 -95 0
92 94 95 96 0
-94 -92 0
-95 -92 0
-95 -94 0
-96 -92 0
-96 -94 0
-96 -95 0
98 101 102 104 0
-101 -98 0
-102 -98 0
-102 -101 0
-104 -98 0
-104 -101 0
-104 -102 0
99 101 103 104 0
-101 -99 0
-103 -99 0
-103 -101 0
-104 -99 0
-104 -101 0
-104 -103 0
100 102 103 104 0
-102 -100 0
-103 -100 0
-103 -102 0
-104 -100 0
-104 -102 0
-104 -103 0
106 109 110 112 0
-109 -106 0
-110 -106 0
-110 -109 0
-112 -106 0
-112 -109 0
-112 -110 0
107 109 111 112 0
-109 -107 0
-111 -107 0
-111 -109 0
-112 -107 0
-112 -109 0
-112 -111 0
108 110 111 112 0
-110 -108 0
-111 -108 0
-111 -110 0
-112 -108 0
-112 -110 0
-112 -111 0
114 117 118 120 0
-117 -114 0
-118 -114 0
-118 -117 0
-120 -114 0
-120 -117 0
-120 -118 0
115 117 119 120 0
-117 -115 0
-119 -115 0
-119 -117 0
-120 -115 0
-120 -117 0
-120 -119 0
116 118 119 120 0
-118 -116 0
-119 -116 0
-119 -118 0
-120 -116 0
-120 -118 0
-120 -119 0
122 125 126 128 0
-125 -122 0
-126 -122 0
-126 -125 0
-128 -122 0
-128 -125 0
-128 -126 0
123 125 127 128 0
-125 -123 0
-127 -123 0
-127 -125 0
-128 -123 0
-128 -125 0
-128 -127 0
124 126 127 128 0
-126 -124 0
-127 -124 0
-127 -126 0
-128 -124 0
-128 -126 0
-128 -127 0
130 133 134 136 0
-133 -130 0
-134 -130 0
-134 -133 0
-136 -130 0
-136 -133 0
-136 -134 0
131 133 135 136 0
-133 -131 0
-135 -131 0
-135 -133 0
-136 -131 0
-136 -133 0
-136 -135 0
132 134 135 136 0
-134 -132 0
-135 -132 0
-135 -134 0
-136 -132 0
-136 -134 0
-136 -135 0
138 141 142 144 0
-141 -138 0
-142 -138 0
-142 -141 0
-144 -138 0
-144 -141 0
-144 -142 0
139 141 143 144 0
-141 -139 0
-143 -139 0
-143 -141 0
-144 -139 0
-144 -141 0
-144 -143 0
140 142 143 144 0
-142 -140 0
-143 -140 0
-143 -142 0
-144 -140 0
-144 -142 0
-144 -143 0
146 149 150 152 0
-149 -146 0
-150 -146 0
-150 -149 0
-152 -146 0
-152 -149 0
-152 -150 0
147 149 151 152 0
-149 -147 0
-151 -147 0
-151 -149 0
-152 -147 0
-152 -149 0
-152 -151 0
148 150 151 152 0
-150 -148 0
-151 -148 0
-151 -150 0
-152 -148 0
-152 -150 0
-152 -151 0
154 157 158 160 0
-157 -154 0
-158 -154 0
-158 -157 0
-160 -154 0
-160 -157 0
-160 -158 0
155 157 159 160 0
-157 -155 0
-159 -155 0
-159 -157 0
-160 -155 0
-160 -157 0
-160 -159 0
156 158 159 160 0
-158 -156 0
-159 -156 0
-159 -158 0
-160 -156 0
-160 -158 0
-160 -159 0
162 165 166 168 0
-165 -162 0
-166 -162 0
-166 -165 0
-168 -162 0
-168 -165 0
-168 -166 0
163 165 167 168 0
-165 -163 0
-167 -163 0
-167 -165 0
-168 -163 0
-168 -165 0
-168 -167 0
164 166 167 168 0
-166 -164 0
-167 -164 0
-167 -166 0
-168 -164 0
-168 -166 0
-168 -167 0
170 173 174 176 0
-173 -170 0
-174 -170 0
-174 -173 0
-176 -170 0
-176 -173 0
-176 -174 0
171 173 175 176 0
-173 -171 0
-175 -171 0
-175 -173 0
-176 -171 0
-176 -173 0
-176 -175 0
172 174 175 176 0
-174 -172 0
-175 -172 0
-175 -174 0
-176 -172 0
-176 -174 0
-176 -175 0
178 181 182 184 0
-181 -178 0
-182 -178 0
-182 -181 0
-184 -178 0
-184 -181 0
-184 -182 0
179 181 183 184 0
-181 -179 0
-183 -179 0
-183 -181 0
-184 -179 0
-184 -181 0
-184 -183 0
180 182 183 184 0
-182 -180 0
-183 -180 0
-183 -182 0
-184 -180 0
-184 -182 0
-184 -183 0
186 189 190 192 0
-189 -186 0
-190 -186 0
-190 -189 0
-192 -186 0
-192 -189 0
-192 -190 0
187 189 191 192 0
-189 -187 0
-191 -187 0
-191 -189 0
-192 -187 0
-192 -189 0
-192 -191 0
188 190 191 192 0
-190 -188 0
-191 -188 0
-191 -190 0
-192 -188 0
-192 -190 0
-192 -191 0
194 197 198 200 0
-197 -194 0
-198 -194 0
-198 -197 0
-200 -194 0
-200 -197 0
-200 -198 0
195 197 199 200 0
-197 -195 0
-199 -195 0
-199 -197 0
-200 -195 0
-200 -197 0
-200 -199 0
196 198 199 200 0
-198 -196 0
-199 -196 0
-199 -198 0
-200 -196 0
-200 -198 0
-200 -199 0
202 205 206 208 0
-205 -202 0
-206 -202 0
-206 -205 0
-208 -202 0
-208 -205 0
-208 -206 0
203 205 207 208 0
-205 -203 0
-207 -203 0
-207 -205 0
-208 -203 0
-208 -205 0
-208 -207 0
204 206 207 208 0
-206 -204 0
-207 -204 0
-207 -206 0
-208 -204 0
-208 -206 0
-208 -207 0
210 213 214 216 0
-213 -210 0
-214 -210 0
-214 -213 0
-216 -210 0
-216 -213 0
-216 -214 0
211 213 215 216 0
-213 -211 0
-215 -211 0
-215 -213 0
-216 -211 0
-216 -213 0
-216 -215 0
212 214 215 216 0
-214 -212 0
-215 -212 0
-215 -214 0
-216 -212 0
-216 -214 0
-216 -215 0
218 221 222 224 0
-221 -218 0
-222 -218 0
-222 -221 0
-224 -218 0
-224 -221 0
-224 -222 0
219 221 223 224 0
-221 -219 0
-223 -219 0
-223 -221 0
-224 -219 0
-224 -221 0
-224 -223 0
220 222 223 224 0
-222 -220 0
-223 -220 0
-223 -222 0
-224 -220 0
-224 -222 0
-224 -223 0
226 229 230 232 0
-229 -226 0
-230 -226 0
-230 -229 0
-232 -226 0
-232 -229 0
-232 -230 0
227 229 231 232 0
-229 -227 0
-231 -227 0
-231 -229 0
-232 -227 0
-232 -229 0
-232 -231 0
228 230 231 232 0
-230 -228 0
-231 -228 0
-231 -230 0
-232 -228 0
-232 -230 0
-232 -231 0
234 237 238 240 0
-237 -234 0
-238 -234 0
-238 -237 0
-240 -234 0
-240 -237 0
-240 -238 0
235 237 239 240 0
-237 -235 0
-239 -235 0
-239 -237 0
-240 -235 0
-240 -237 0
-240 -239 0
236 238 239 240 0
-238 -236 0
-239 -236 0
-239 -238 0
-240 -236 0
-240 -238 0
-240 -239 0
242 245 246 248 0
-245 -242 0
-246 -242 0
-246 -245 0
-248 -242 0
-248 -245 0
-248 -246 0
243 245 247 248 0
-245 -243 0
-247 -243 0
-247 -245 0
-248 -243 0
-248 -245 0
-248 -247 0
244 246 247 248 0
-246 -244 0
-247 -244 0
-247 -246 0
-248 -244 0
-248 -246 0
-248 -247 0
250 253 254 256 0
-253 -250 0
-254 -250 0
-254 -253 0
-256 -250 0
-256 -253 0
-256 -254 0
251 253 255 256 0
-253 -251 0
-255 -251 0
-255 -253 0
-256 -251 0
-256 -253 0
-256 -255 0
252 254 255 256 0
-254 -252 0
-255 -252 0
-255 -254 0
-256 -252 0
-256 -254 0
-256 -255 0
258 261 262 264 0
-261 -258 0
-262 -258 0
-262 -261 0
-264 -258 0
-264 -261 0
-264 -262 0
259 261 263 264 0
-261 -259 0
-263 -259 0
-263 -261 0
-264 -259 0
-264 -261 0
-264 -263 0
260 262 263 264 0
-262 -260 0
-263 -260 0
-263 -262 0
-264 -260 0
-264 -262 0
-264 -263 0
266 269 270 272 0
-269 -266 0
-270 -266 0
-270 -269 0
-272 -266 0
-272 -269 0
-272 -270 0
267 269 271 272 0
-269 -267 0
-271 -267 0
-271 -269 0
-272 -267 0
-272 -269 0
-272 -271 0
268 270 271 272 0
-270 -268 0
-271 -268 0
-271 -270 0
-272 -268 0
-272 -270 0
-272 -271 0
274 277 278 280 0
-277 -274 0
-278 -274 0
-278 -277 0
-280 -274 0
-280 -277 0
-280 -278 0
275 277 279 280 0
-277 -275 0
-279 -275 0
-279 -277 0
-280 -275 0
-280 -277 0
-280 -279 0
276 278 279 280 0
-278 -276 0
-279 -276 0
-279 -278 0
-280 -276 0
-280 -278 0
-280 -279 0
282 285 286 288 0
-285 -282 0
-286 -282 0
-286 -285 0
-288 -282 0
-288 -285 0
-288 -286 0
283 285 287 288 0
-285 -283 0
-287 -283 0
-287 -285 0
-288 -283 0
-288 -285 0
-288 -287 0
284 286 287 288 0
-286 -284 0
-287 -284 0
-287 -286 0
-288 -284 0
-288 -286 0
-288 -287 0
290 293 294 296 0
-293 -290 0
-294 -290 0
-294 -293 0
-296 -290 0
-296 -293 0
-296 -294 0
291 293 295 296 0
-293 -291 0
-295 -291 0
-295 -293 0
-296 -291 0
-296 -293 0
-296 -295 0
292 294 295 296 0
-294 -292 0
-295 -292 0
-295 -294 0
-296 -292 0
-296 -294 0
-296 -295 0
298 301 302 304 0
-301 -298 0
-302 -298 0
-302 -301 0
-304 -298 0
-304 -301 0
-304 -302 0
299 301 303 304 0
-301 -299 0
-303 -299 0
-303 -301 0
-304 -299 0
-304 -301 0
-304 -303 0
300 302 303 304 0
-302 -300 0
-303 -300 0
-303 -302 0
-304 -300 0
-304 -302 0
-304 -303 0
306 309 310 312 0
-309 -306 0
-310 -306 0
-310 -309 0
-312 -306 0
-312 -309 0
-312 -310 0
307 309 311 312 0
-309 -307 0
-311 -307 0
-311 -309 0
-312 -307 0
-312 -309 0
-312 -311 0
308 310 311 312 0
-310 -308 0
-311 -308 0
-311 -310 0
-312 -308 0
-312 -310 0
-312 -311 0
314 317 318 320 0
-317 -314 0
-318 -314 0
-318 -317 0
-320 -314 0
-320 -317 0
-320 -318 0
315 317 319 320 0
-317 -315 0
-319 -315 0
-319 -317 0
-320 -315 0
-320 -317 0
-320 -319 0
316 318 319 320 0
-318 -316 0
-319 -316 0
-319 -318 0
-320 -316 0
-320 -318 0
-320 -319 0
322 325 326 328 0
-325 -322 0
-326 -322 0
-326 -325 0
-328 -322 0
-328 -325 0
-328 -326 0
323 325 327 328 0
-325 -323 0
-327 -323 0
-327 -325 0
-328 -323 0
-328 -325 0
-328 -327 0
324 326 327 328 0
-326 -324 0
-327 -324 0
-327 -326 0
-328 -324 0
-328 -326 0
-328 -327 0
330 333 334 336 0
-333 -330 0
-334 -330 0
-334 -333 0
-336 -330 0
-336 -333 0
-336 -334 0
331 333 335 336 0
-333 -331 0
-335 -331 0
-335 -333 0
-336 -331 0
-336 -333 0
-336 -335 0
332 334 335 336 0
-334 -332 0
-335 -332 0
-335 -334 0
-336 -332 0
-336 -334 0
-336 -335 0
338 341 342 344 0
-341 -338 0
-342 -338 0
-342 -341 0
-344 -338 0
-344 -341 0
-344 -342 0
339 341 343 344 0
-341 -339 0
-343 -339 0
-343 -341 0
-344 -339 0
-344 -341 0
-344 -343 0
340 342 343 344 0
-342 -340 0
-343 -340 0
-343 -342 0
-344 -340 0
-344 -342 0
-344 -343 0
346 349 350 352 0
-349 -346 0
-350 -346 0
-350 -349 0
-352 -346 0
-352 -349 0
-352 -350 0
347 349 351 352 0
-349 -347 0
-351 -347 0
-351 -349 0
-352 -347 0
-352 -349 0
-352 -351 0
348 350 351 352 0
-350 -348 0
-351 -348 0
-351 -350 0
-352 -348 0
-352 -350 0
-352 -351 0
354 357 358 360 0
-357 -354 0
-358 -354 0
-358 -357 0
-360 -354 0
-360 -357 0
-360 -358 0
355 357 359 360 0
-357 -355 0
-359 -355 0
-359 -357 0
-360 -355 0
-360 -357 0
-360 -359 0
356 358 359 360 0
-358 -356 0
-359 -356 0
-359 -358 0
-360 -356 0
-360 -358 0
-360 -359 0
362 365 366 368 0
-365 -362 0
-366 -362 0
-366 -365 0
-368 -362 0
-368 -365 0
-368 -366 0
363 365 367 368 0
-365 -363 0
-367 -363 0
-367 -365 0
-368 -363 0
-368 -365 0
-368 -367 0
364 366 367 368 0
-366 -364 0
-367 -364 0
-367 -366 0
-368 -364 0
-368 -366 0
-368 -367 0
370 373 374 376 0
-373 -370 0
-374 -370 0
-374 -373 0
-376 -370 0
-376 -373 0
-376 -374 0
371 373 375 376 0
-373 -371 0
-375 -371 0
-375 -373 0
-376 -371 0
-376 -373 0
-376 -375 0
372 374 375 376 0
-374 -372 0
-375 -372 0
-375 -374 0
-376 -372 0
-376 -374 0
-376 -375 0
378 381 382 384 0
-381 -378 0
-382 -378 0
-382 -381 0
-384 -378 0
-384 -381 0
-384 -382 0
379 381 383 384 0
-381 -379 0
-383 -379 0
-383 -381 0
-384 -379 0
-384 -381 0
-384 -383 0
380 382 383 384 0
-382 -380 0
-383 -380 0
-383 -382 0
-384 -380 0
-384 -382 0
-384 -383 0
386 389 390 392 0
-389 -386 0
-390 -386 0
-390 -389 0
-392 -386 0
-392 -389 0
-392 -390 0
387 389 391 392 0
-389 -387 0
-391 -387 0
-391 -389 0
-392 -387 0
-392 -389 0
-392 -391 0
388 390 391 392 0
-390 -388 0
-391 -388 0
-391 -390 0
-392 -388 0
-392 -390 0
-392 -391 0
394 397 398 400 0
-397 -394 0
-398 -394 0
-398 -397 0
-400 -394 0
-400 -397 0
-400 -398 0
395 397 399 400 0
-397 -395 0
-399 -395 0
-399 -397 0
-400 -395 0
-400 -397 0
-400 -399 0
396 398 399 400 0
-398 -396 0
-399 -396 0
-399 -398 0
-400 -396 0
-400 -398 0
-400 -399 0
402 405 406 408 0
-405 -402 0
-406 -402 0
-406 -405 0
-408 -402 0
-408 -405 0
-408 -406 0
403 405 407 408 0
-405 -403 0
-407 -403 0
-407 -405 0
-408 -403 0
-408 -405 0
-408 -407 0
404 406 407 408 0
-406 -404 0
-407 -404 0
-407 -406 0
-408 -404 0
-408 -406 0
-408 -407 0
410 413 414 416 0
-413 -410 0
-414 -410 0
-414 -413 0
-416 -410 0
-416 -413 0
-416 -414 0
411 413 415 416 0
-413 -411 0
-415 -411 0
-415 -413 0
-416 -411 0
-416 -413 0
-416 -415 0
412 414 415 416 0
-414 -412 0
-415 -412 0
-415 -414 0
-416 -412 0
-416 -414 0
-416 -415 0
418 421 422 424 0
-421 -418 0
-422 -418 0
-422 -421 0
-424 -418 0
-424 -421 0
-424 -422 0
419 421 423 424 0
-421 -419 0
-423 -419 0
-423 -421 0
-424 -419 0
-424 -421 0
-424 -423 0
420 422 423 424 0
-422 -420 0
-423 -420 0
-423 -422 0
-424 -420 0
-424 -422 0
-424 -423 0
426 429 430 432 0
-429 -426 0
-430 -426 0
-430 -429 0
-432 -426 0
-432 -429 0
-432 -430 0
427 429 431 432 0
-429 -427 0
-431 -427 0
-431 -429 0
-432 -427 0
-432 -429 0
-432 -431 0
428 430 431 432 0
-430 -428 0
-431 -428 0
-431 -430 0
-432 -428 0
-432 -430 0
-432 -431 0
434 437 438 440 0
-437 -434 0
-438 -434 0
-438 -437 0
-440 -434 0
-440 -437 0
-440 -438 0
435 437 439 440 0
-437 -435 0
-439 -435 0
-439 -437 0
-440 -435 0
-440 -437 0
-440 -439 0
436 438 439 440 0
-438 -436 0
-439 -436 0
-439 -438 0
-440 -436 0
-440 -438 0
-440 -439 0
442 445 446 448 0
-445 -442 0
-446 -442 0
-446 -445 0
-448 -442 0
-448 -445 0
-448 -446 0
443 445 447 448 0
-445 -443 0
-447 -443 0
-447 -445 0
-448 -443 0
-448 -445 0
-448 -447 0
444 446 447 448 0
-446 -444 0
-447 -444 0
-447 -446 0
-448 -444 0
-448 -446 0
-448 -447 0
450 453 454 456 0
-453 -450 0
-454 -450 0
-454 -453 0
-456 -450 0
-456 -453 0
-456 -454 0
451 453 455 456 0
-453 -451 0
-455 -451 0
-455 -453 0
-456 -451 0
-456 -453 0
-456 -455 0
452 454 455 456 0
-454 -452 0
-455 -452 0
-455 -454 0
-456 -452 0
-456 -454 0
-456 -455 0
458 461 462 464 0
-461 -458 0
-462 -458 0
-462 -461 0
-464 -458 0
-464 -461 0
-464 -462 0
459 461 463 464 0
-461 -459 0
-463 -459 0
-463 -461 0
-464 -459 0
-464 -461 0
-464 -463 0
460 462 463 464 0
-462 -460 0
-463 -460 0
-463 -462 0
-464 -460 0
-464 -462 0
-464 -463 0
466 469 470 472 0
-469 -466 0
-470 -466 0
-470 -469 0
-472 -466 0
-472 -469 0
-472 -470 0
467 469 471 472 0
-469 -467 0
-471 -467 0
-471 -469 0
-472 -467 0
-472 -469 0
-472 -471 0
468 470 471 472 0
-470 -468 0
-471 -468 0
-471 -470 0
-472 -468 0
-472 -470 0
-472 -471 0
474 477 478 480 0
-477 -474 0
-478 -474 0
-478 -477 0
-480 -474 0
-480 -477 0
-480 -478 0
475 477 479 480 0
-477 -475 0
-479 -475 0
-479 -477 0
-480 -475 0
-480 -477 0
-480 -479 0
476 478 479 480 0
-478 -476 0
-479 -476 0
-479 -478 0
-480 -476 0
-480 -478 0
-480 -479 0
482 485 486 488 0
-485 -482 0
-486 -482 0
-486 -485 0
-488 -482 0
-488 -485 0
-488 -486 0
483 485 487 488 0
-485 -483 0
-487 -483 0
-487 -485 0
-488 -483 0
-488 -485 0
-488 -487 0
484 486 487 488 0
-486 -484 0
-487 -484 0
-487 -486 0
-488 -484 0
-488 -486 0
-488 -487 0
490 493 494 496 0
-493 -490 0
-494 -490 0
-494 -493 0
-496 -490 0
-496 -493 0
-496 -494 0
491 493 495 496 0
-493 -491 0
-495 -491 0
-495 -493 0
-496 -491 0
-496 -493 0
-496 -495 0
492 494 495 496 0
-494 -492 0
-495 -492 0
-495 -494 0
-496 -492 0
-496 -494 0
-496 -495 0
498 501 502 504 0
-501 -498 0
-502 -498 0
-502 -501 0
-504 -498 0
-504 -501 0
-504 -502 0
499 501 503 504 0
-501 -499 0
-503 -499 0
-503 -501 0
-504 -499 0
-504 -501 0
-504 -503 0
500 502 503 504 0
-502 -500 0
-503 -500 0
-503 -502 0
-504 -500 0
-504 -502 0
-504 -503 0
506 509 510 512 0
-509 -506 0
-510 -506 0
-510 -509 0
-512 -506 0
-512 -509 0
-512 -510 0
507 509 511 512 0
-509 -507 0
-511 -507 0
-511 -509 0
-512 -507 0
-512 -509 0
-512 -511 0
508 510 511 512 0
-510 -508 0
-511 -508 0
-511 -510 0
-512 -508 0
-512 -510 0
-512 -511 0
-5 0
-5 -1 0
-6 0
-6 -1 0
-6 -3 0
-8 0
-8 -1 0
-8 -3 0
-8 -4 0
-5 0
-5 -1 0
-7 0
-7 -1 0
-7 -2 0
-8 0
-8 -1 0
-8 -2 0
-8 -4 0
-6 0
-6 -1 0
-7 0
-7 -1 0
-7 -2 0
-8 0
-8 -1 0
-8 -2 0
-8 -3 0
-13 0
-13 -9 0
-14 0
-14 -9 0
-14 -11 0
-16 0
-16 -9 0
-16 -11 0
-16 -12 0
-13 0
-13 -9 0
-15 0
-15 -9 0
-15 -10 0
-16 0
-16 -9 0
-16 -10 0
-16 -12 0
-14 0
-14 -9 0
-14 -11 0
-15 0
-15 -9 0
-16 0
-16 -9 0
-16 -10 0
-16 -11 0
-21 0
-21 -17 0
-22 0
-22 -17 0
-22 -19 0
-24 0
-24 -17 0
-24 -19 0
-24 -20 0
-21 0
-21 -17 0
-21 -20 0
-23 0
-23 -17 0
-24 0
-24 -17 0
-24 -18 0
-24 -20 0
-22 0
-22 -17 0
-23 0
-23 -17 0
-23 -18 0
-24 0
-24 -17 0
-24 -18 0
-24 -19 0
-29 0
-29 -25 0
-30 0
-30 -25 0
-30 -27 0
-32 0
-32 -25 0
-32 -27 0
-32 -28 0
-29 0
-29 -25 0
-29 -28 0
-31 0
-31 -25 0
-32 0
-32 -25 0
-32 -26 0
-32 -28 0
-30 0
-30 -25 0
-30 -27 0
-31 0
-31 -25 0
-32 0
-32 -25 0
-32 -26 0
-32 -27 0
-37 0
-37 -33 0
-38 0
-38 -33 0
-38 -35 0
-40 0
-40 -33 0
-40 -35 0
-40 -36 0
-35 -36 0
-37 0
-37 -33 0
-37 -36 0
-37 -38 0
-40 0
-40 -33 0
-40 -36 0
-36 -35 0
-38 0
-38 -33 0
-38 -35 0
-38 -37 0
-40 0
-40 -33 0
-40 -35 0
-45 0
-45 -41 0
-46 0
-46 -41 0
-46 -43 0
-48 0
-48 -41 0
-48 -43 0
-48 -44 0
-43 -44 0
-45 0
-45 -41 0
-45 -44 0
-45 -46 0
-48 0
-48 -41 0
-48 -44 0
-44 -43 0
-44 -45 0
-46 0
-46 -41 0
-46 -43 0
-46 -45 0
-48 -43 0
-53 0
-53 -49 0
-54 0
-54 -49 0
-54 -51 0
-56 0
-56 -49 0
-56 -51 0
-56 -52 0
-51 -52 0
-51 -54 0
-53 0
-53 -49 0
-53 -52 0
-53 -54 0
-56 -52 0
-52 -51 0
-54 0
-54 -49 0
-54 -51 0
-54 -53 0
-56 0
-56 -49 0
-56 -51 0
-61 0
-61 -57 0
-62 0
-62 -57 0
-62 -59 0
-64 0
-64 -57 0
-64 -59 0
-64 -60 0
-59 -60 0
-59 -62 0
-61 0
-61 -57 0
-61 -60 0
-61 -62 0
-64 -60 0
-60 -59 0
-60 -61 0
-62 0
-62 -57 0
-62 -59 0
-62 -61 0
-64 -59 0
-69 0
-69 -65 0
-69 -68 0
-70 0
-70 -65 0
-72 0
-72 -65 0
-72 -67 0
-72 -68 0
-69 0
-69 -65 0
-71 0
-71 -65 0
-71 -66 0
-72 0
-72 -65 0
-72 -66 0
-72 -68 0
-70 0
-70 -65 0
-71 0
-71 -65 0
-71 -66 0
-72 0
-72 -65 0
-72 -66 0
-72 -67 0
-77 0
-77 -73 0
-77 -76 0
-78 0
-78 -73 0
-80 0
-80 -73 0
-80 -75 0
-80 -76 0
-77 0
-77 -73 0
-79 0
-79 -73 0
-79 -74 0
-80 0
-80 -73 0
-80 -74 0
-80 -76 0
-78 0
-78 -73 0
-78 -75 0
-79 0
-79 -73 0
-80 0
-80 -73 0
-80 -74 0
-80 -75 0
-85 0
-85 -81 0
-85 -84 0
-86 0
-86 -81 0
-88 0
-88 -81 0
-88 -83 0
-88 -84 0
-85 0
-85 -81 0
-85 -84 0
-87 0
-87 -81 0
-88 0
-88 -81 0
-88 -82 0
-88 -84 0
-86 0
-86 -81 0
-87 0
-87 -81 0
-87 -82 0
-88 0
-88 -81 0
-88 -82 0
-88 -83 0
-93 0
-93 -89 0
-93 -92 0
-94 0
-94 -89 0
-96 0
-96 -89 0
-96 -91 0
-96 -92 0
-93 0
-93 -89 0
-93 -92 0
-95 0
-95 -89 0
-96 0
-96 -89 0
-96 -90 0
-96 -92 0
-94 0
-94 -89 0
-94 -91 0
-95 0
-95 -89 0
-96 0
-96 -89 0
-96 -90 0
-96 -91 0
-101 0
-101 -97 0
-101 -100 0
-102 0
-102 -97 0
-104 0
-104 -97 0
-104 -99 0
-104 -100 0
-99 -100 0
-101 0
-101 -97 0
-101 -100 0
-101 -102 0
-104 0
-104 -97 0
-104 -100 0
-100 -99 0
-102 0
-102 -97 0
-102 -99 0
-102 -101 0
-104 0
-104 -97 0
-104 -99 0
-109 0
-109 -105 0
-109 -108 0
-110 0
-110 -105 0
-112 0
-112 -105 0
-112 -107 0
-112 -108 0
-107 -108 0
-109 0
-109 -105 0
-109 -108 0
-109 -110 0
-112 0
-112 -105 0
-112 -108 0
-108 -107 0
-108 -109 0
-110 0
-110 -105 0
-110 -107 0
-110 -109 0
-112 -107 0
-117 0
-117 -113 0
-117 -116 0
-118 0
-118 -113 0
-120 0
-120 -113 0
-120 -115 0
-120 -116 0
-115 -116 0
-115 -118 0
-117 0
-117 -113 0
-117 -116 0
-117 -118 0
-120 -116 0
-116 -115 0
-118 0
-118 -113 0
-118 -115 0
-118 -117 0
-120 0
-120 -113 0
-120 -115 0
-125 0
-125 -121 0
-125 -124 0
-126 0
-126 -121 0
-128 0
-128 -121 0
-128 -123 0
-128 -124 0
-123 -124 0
-123 -126 0
-125 0
-125 -121 0
-125 -124 0
-125 -126 0
-128 -124 0
-124 -123 0
-124 -125 0
-126 0
-126 -121 0
-126 -123 0
-126 -125 0
-128 -123 0
-130 -131 0
-134 0
-134 -129 0
-134 -131 0
-134 -135 0
-136 0
-136 -129 0
-136 -131 0
-131 -130 0
-135 0
-135 -129 0
-135 -130 0
-135 -134 0
-136 0
-136 -129 0
-136 -130 0
-134 0
-134 -129 0
-135 0
-135 -129 0
-135 -130 0
-136 0
-136 -129 0
-136 -130 0
-136 -131 0
-138 -139 0
-142 0
-142 -137 0
-142 -139 0
-142 -143 0
-144 0
-144 -137 0
-144 -139 0
-139 -138 0
-143 0
-143 -137 0
-143 -138 0
-143 -142 0
-144 0
-144 -137 0
-144 -138 0
-142 0
-142 -137 0
-142 -139 0
-143 0
-143 -137 0
-144 0
-144 -137 0
-144 -138 0
-144 -139 0
-146 -147 0
-150 0
-150 -145 0
-150 -147 0
-150 -151 0
-152 0
-152 -145 0
-152 -147 0
-147 -146 0
-147 -150 0
-151 0
-151 -145 0
-151 -146 0
-151 -150 0
-152 -146 0
-150 0
-150 -145 0
-151 0
-151 -145 0
-151 -146 0
-152 0
-152 -145 0
-152 -146 0
-152 -147 0
-154 -155 0
-158 0
-158 -153 0
-158 -155 0
-158 -159 0
-160 0
-160 -153 0
-160 -155 0
-155 -154 0
-155 -158 0
-159 0
-159 -153 0
-159 -154 0
-159 -158 0
-160 -154 0
-158 0
-158 -153 0
-158 -155 0
-159 0
-159 -153 0
-160 0
-160 -153 0
-160 -154 0
-160 -155 0
-162 -163 0
-166 0
-166 -161 0
-166 -163 0
-166 -167 0
-168 0
-168 -161 0
-168 -163 0
-163 -162 0
-163 -164 0
-163 -166 0
-165 -166 0
-167 -162 0
-167 -166 0
-164 -163 0
-166 0
-166 -161 0
-166 -163 0
-166 -165 0
-168 0
-168 -161 0
-168 -163 0
-170 -171 0
-174 0
-174 -169 0
-174 -171 0
-174 -175 0
-176 0
-176 -169 0
-176 -171 0
-171 -170 0
-171 -172 0
-171 -174 0
-173 -174 0
-175 -170 0
-175 -174 0
-172 -171 0
-172 -173 0
-174 0
-174 -169 0
-174 -171 0
-174 -173 0
-176 -171 0
-178 -179 0
-182 0
-182 -177 0
-182 -179 0
-182 -183 0
-184 0
-184 -177 0
-184 -179 0
-179 -178 0
-179 -180 0
-179 -182 0
-181 -180 0
-181 -182 0
-183 -182 0
-180 -179 0
-182 0
-182 -177 0
-182 -179 0
-182 -181 0
-184 0
-184 -177 0
-184 -179 0
-186 -187 0
-190 0
-190 -185 0
-190 -187 0
-190 -191 0
-192 0
-192 -185 0
-192 -187 0
-187 -186 0
-187 -188 0
-187 -190 0
-189 -188 0
-189 -190 0
-191 -190 0
-188 -187 0
-188 -189 0
-190 0
-190 -185 0
-190 -187 0
-190 -189 0
-192 -187 0
-194 -196 0
-197 0
-197 -193 0
-197 -196 0
-197 -199 0
-200 0
-200 -193 0
-200 -196 0
-197 0
-197 -193 0
-199 0
-199 -193 0
-199 -194 0
-200 0
-200 -193 0
-200 -194 0
-200 -196 0
-196 -194 0
-199 0
-199 -193 0
-199 -194 0
-199 -197 0
-200 0
-200 -193 0
-200 -194 0
-202 -204 0
-205 0
-205 -201 0
-205 -204 0
-205 -207 0
-208 0
-208 -201 0
-208 -204 0
-205 0
-205 -201 0
-207 0
-207 -201 0
-207 -202 0
-208 0
-208 -201 0
-208 -202 0
-208 -204 0
-204 -202 0
-204 -205 0
-207 0
-207 -201 0
-207 -202 0
-207 -205 0
-208 -202 0
-210 -212 0
-213 0
-213 -209 0
-213 -212 0
-213 -215 0
-216 0
-216 -209 0
-216 -212 0
-213 0
-213 -209 0
-213 -212 0
-215 0
-215 -209 0
-216 0
-216 -209 0
-216 -210 0
-216 -212 0
-212 -210 0
-215 0
-215 -209 0
-215 -210 0
-215 -213 0
-216 0
-216 -209 0
-216 -210 0
-218 -220 0
-221 0
-221 -217 0
-221 -220 0
-221 -223 0
-224 0
-224 -217 0
-224 -220 0
-221 0
-221 -217 0
-221 -220 0
-223 0
-223 -217 0
-224 0
-224 -217 0
-224 -218 0
-224 -220 0
-220 -218 0
-220 -221 0
-223 0
-223 -217 0
-223 -218 0
-223 -221 0
-224 -218 0
-226 -228 0
-229 0
-229 -225 0
-229 -228 0
-229 -231 0
-232 0
-232 -225 0
-232 -228 0
-227 -228 0
-229 0
-229 -225 0
-229 -228 0
-229 -230 0
-232 0
-232 -225 0
-232 -228 0
-228 -226 0
-228 -227 0
-228 -229 0
-230 -229 0
-231 -226 0
-231 -229 0
-234 -236 0
-237 0
-237 -233 0
-237 -236 0
-237 -239 0
-240 0
-240 -233 0
-240 -236 0
-235 -236 0
-237 0
-237 -233 0
-237 -236 0
-237 -238 0
-240 0
-240 -233 0
-240 -236 0
-236 -234 0
-236 -235 0
-236 -237 0
-238 -235 0
-238 -237 0
-239 -237 0
-242 -244 0
-245 0
-245 -241 0
-245 -244 0
-245 -247 0
-248 0
-248 -241 0
-248 -244 0
-243 -244 0
-243 -246 0
-245 0
-245 -241 0
-245 -244 0
-245 -246 0
-248 -244 0
-244 -242 0
-244 -243 0
-244 -245 0
-246 -245 0
-247 -242 0
-247 -245 0
-250 -252 0
-253 0
-253 -249 0
-253 -252 0
-253 -255 0
-256 0
-256 -249 0
-256 -252 0
-251 -252 0
-251 -254 0
-253 0
-253 -249 0
-253 -252 0
-253 -254 0
-256 -252 0
-252 -250 0
-252 -251 0
-252 -253 0
-254 -251 0
-254 -253 0
-255 -253 0
-258 -259 0
-258 -263 0
-262 0
-262 -257 0
-262 -259 0
-262 -263 0
-264 -259 0
-259 -258 0
-263 0
-263 -257 0
-263 -258 0
-263 -262 0
-264 0
-264 -257 0
-264 -258 0
-262 0
-262 -257 0
-263 0
-263 -257 0
-263 -258 0
-264 0
-264 -257 0
-264 -258 0
-264 -259 0
-266 -267 0
-266 -271 0
-270 0
-270 -265 0
-270 -267 0
-270 -271 0
-272 -267 0
-267 -266 0
-271 0
-271 -265 0
-271 -266 0
-271 -270 0
-272 0
-272 -265 0
-272 -266 0
-270 0
-270 -265 0
-270 -267 0
-271 0
-271 -265 0
-272 0
-272 -265 0
-272 -266 0
-272 -267 0
-274 -275 0
-274 -279 0
-278 0
-278 -273 0
-278 -275 0
-278 -279 0
-280 -275 0
-275 -274 0
-275 -278 0
-279 0
-279 -273 0
-279 -274 0
-279 -278 0
-280 -274 0
-278 0
-278 -273 0
-279 0
-279 -273 0
-279 -274 0
-280 0
-280 -273 0
-280 -274 0
-280 -275 0
-282 -283 0
-282 -287 0
-286 0
-286 -281 0
-286 -283 0
-286 -287 0
-288 -283 0
-283 -282 0
-283 -286 0
-287 0
-287 -281 0
-287 -282 0
-287 -286 0
-288 -282 0
-286 0
-286 -281 0
-286 -283 0
-287 0
-287 -281 0
-288 0
-288 -281 0
-288 -282 0
-288 -283 0
-290 -291 0
-290 -295 0
-294 0
-294 -289 0
-294 -291 0
-294 -295 0
-296 -291 0
-291 -290 0
-291 -292 0
-291 -294 0
-293 -294 0
-295 -290 0
-295 -294 0
-292 -291 0
-294 0
-294 -289 0
-294 -291 0
-294 -293 0
-296 0
-296 -289 0
-296 -291 0
-298 -299 0
-298 -303 0
-302 0
-302 -297 0
-302 -299 0
-302 -303 0
-304 -299 0
-299 -298 0
-299 -300 0
-299 -302 0
-301 -302 0
-303 -298 0
-303 -302 0
-300 -299 0
-300 -301 0
-302 0
-302 -297 0
-302 -299 0
-302 -301 0
-304 -299 0
-306 -307 0
-306 -311 0
-310 0
-310 -305 0
-310 -307 0
-310 -311 0
-312 -307 0
-307 -306 0
-307 -308 0
-307 -310 0
-309 -308 0
-309 -310 0
-311 -310 0
-308 -307 0
-310 0
-310 -305 0
-310 -307 0
-310 -309 0
-312 0
-312 -305 0
-312 -307 0
-314 -315 0
-314 -319 0
-318 0
-318 -313 0
-318 -315 0
-318 -319 0
-320 -315 0
-315 -314 0
-315 -316 0
-315 -318 0
-317 -316 0
-317 -318 0
-319 -318 0
-316 -315 0
-316 -317 0
-318 0
-318 -313 0
-318 -315 0
-318 -317 0
-320 -315 0
-322 -324 0
-322 -327 0
-325 0
-325 -321 0
-325 -324 0
-325 -327 0
-328 -324 0
-325 0
-325 -321 0
-327 0
-327 -321 0
-327 -322 0
-328 0
-328 -321 0
-328 -322 0
-328 -324 0
-324 -322 0
-327 0
-327 -321 0
-327 -322 0
-327 -325 0
-328 0
-328 -321 0
-328 -322 0
-330 -332 0
-330 -335 0
-333 0
-333 -329 0
-333 -332 0
-333 -335 0
-336 -332 0
-333 0
-333 -329 0
-335 0
-335 -329 0
-335 -330 0
-336 0
-336 -329 0
-336 -330 0
-336 -332 0
-332 -330 0
-332 -333 0
-335 0
-335 -329 0
-335 -330 0
-335 -333 0
-336 -330 0
-338 -340 0
-338 -343 0
-341 0
-341 -337 0
-341 -340 0
-341 -343 0
-344 -340 0
-341 0
-341 -337 0
-341 -340 0
-343 0
-343 -337 0
-344 0
-344 -337 0
-344 -338 0
-344 -340 0
-340 -338 0
-343 0
-343 -337 0
-343 -338 0
-343 -341 0
-344 0
-344 -337 0
-344 -338 0
-346 -348 0
-346 -351 0
-349 0
-349 -345 0
-349 -348 0
-349 -351 0
-352 -348 0
-349 0
-349 -345 0
-349 -348 0
-351 0
-351 -345 0
-352 0
-352 -345 0
-352 -346 0
-352 -348 0
-348 -346 0
-348 -349 0
-351 0
-351 -345 0
-351 -346 0
-351 -349 0
-352 -346 0
-354 -356 0
-354 -359 0
-357 0
-357 -353 0
-357 -356 0
-357 -359 0
-360 -356 0
-355 -356 0
-357 0
-357 -353 0
-357 -356 0
-357 -358 0
-360 0
-360 -353 0
-360 -356 0
-356 -354 0
-356 -355 0
-356 -357 0
-358 -357 0
-359 -354 0
-359 -357 0
-362 -364 0
-362 -367 0
-365 0
-365 -361 0
-365 -364 0
-365 -367 0
-368 -364 0
-363 -364 0
-365 0
-365 -361 0
-365 -364 0
-365 -366 0
-368 0
-368 -361 0
-368 -364 0
-364 -362 0
-364 -363 0
-364 -365 0
-366 -363 0
-366 -365 0
-367 -365 0
-370 -372 0
-370 -375 0
-373 0
-373 -369 0
-373 -372 0
-373 -375 0
-376 -372 0
-371 -372 0
-371 -374 0
-373 0
-373 -369 0
-373 -372 0
-373 -374 0
-376 -372 0
-372 -370 0
-372 -371 0
-372 -373 0
-374 -373 0
-375 -370 0
-375 -373 0
-378 -380 0
-378 -383 0
-381 0
-381 -377 0
-381 -380 0
-381 -383 0
-384 -380 0
-379 -380 0
-379 -382 0
-381 0
-381 -377 0
-381 -380 0
-381 -382 0
-384 -380 0
-380 -378 0
-380 -379 0
-380 -381 0
-382 -379 0
-382 -381 0
-383 -381 0
-386 -387 0
-386 -388 0
-386 -391 0
-389 -391 0
-390 -387 0
-390 -391 0
-387 -386 0
-391 0
-391 -385 0
-391 -386 0
-391 -390 0
-392 0
-392 -385 0
-392 -386 0
-388 -386 0
-391 0
-391 -385 0
-391 -386 0
-391 -389 0
-392 0
-392 -385 0
-392 -386 0
-394 -395 0
-394 -396 0
-394 -399 0
-397 -399 0
-398 -395 0
-398 -399 0
-395 -394 0
-399 0
-399 -393 0
-399 -394 0
-399 -398 0
-400 0
-400 -393 0
-400 -394 0
-396 -394 0
-396 -397 0
-399 0
-399 -393 0
-399 -394 0
-399 -397 0
-400 -394 0
-402 -403 0
-402 -404 0
-402 -407 0
-405 -407 0
-406 -403 0
-406 -407 0
-403 -402 0
-403 -406 0
-407 0
-407 -401 0
-407 -402 0
-407 -406 0
-408 -402 0
-404 -402 0
-407 0
-407 -401 0
-407 -402 0
-407 -405 0
-408 0
-408 -401 0
-408 -402 0
-410 -411 0
-410 -412 0
-410 -415 0
-413 -415 0
-414 -411 0
-414 -415 0
-411 -410 0
-411 -414 0
-415 0
-415 -409 0
-415 -410 0
-415 -414 0
-416 -410 0
-412 -410 0
-412 -413 0
-415 0
-415 -409 0
-415 -410 0
-415 -413 0
-416 -410 0
-418 -419 0
-418 -420 0
-418 -423 0
-421 -423 0
-422 -419 0
-422 -423 0
-419 -418 0
-419 -420 0
-419 -422 0
-421 -422 0
-423 -418 0
-423 -422 0
-420 -418 0
-420 -419 0
-420 -421 0
-422 -421 0
-423 -418 0
-423 -421 0
-426 -427 0
-426 -428 0
-426 -431 0
-429 -431 0
-430 -427 0
-430 -431 0
-427 -426 0
-427 -428 0
-427 -430 0
-429 -430 0
-431 -426 0
-431 -430 0
-428 -426 0
-428 -427 0
-428 -429 0
-430 -427 0
-430 -429 0
-431 -429 0
-434 -435 0
-434 -436 0
-434 -439 0
-437 -439 0
-438 -435 0
-438 -439 0
-435 -434 0
-435 -436 0
-435 -438 0
-437 -436 0
-437 -438 0
-439 -438 0
-436 -434 0
-436 -435 0
-436 -437 0
-438 -437 0
-439 -434 0
-439 -437 0
-442 -443 0
-442 -444 0
-442 -447 0
-445 -447 0
-446 -443 0
-446 -447 0
-443 -442 0
-443 -444 0
-443 -446 0
-445 -444 0
-445 -446 0
-447 -446 0
-444 -442 0
-444 -443 0
-444 -445 0
-446 -443 0
-446 -445 0
-447 -445 0
-450 -451 0
-450 -452 0
-450 -455 0
-453 -452 0
-453 -455 0
-454 -455 0
-451 -450 0
-455 0
-455 -449 0
-455 -450 0
-455 -454 0
-456 0
-456 -449 0
-456 -450 0
-452 -450 0
-455 0
-455 -449 0
-455 -450 0
-455 -453 0
-456 0
-456 -449 0
-456 -450 0
-458 -459 0
-458 -460 0
-458 -463 0
-461 -460 0
-461 -463 0
-462 -463 0
-459 -458 0
-463 0
-463 -457 0
-463 -458 0
-463 -462 0
-464 0
-464 -457 0
-464 -458 0
-460 -458 0
-460 -461 0
-463 0
-463 -457 0
-463 -458 0
-463 -461 0
-464 -458 0
-466 -467 0
-466 -468 0
-466 -471 0
-469 -468 0
-469 -471 0
-470 -471 0
-467 -466 0
-467 -470 0
-471 0
-471 -465 0
-471 -466 0
-471 -470 0
-472 -466 0
-468 -466 0
-471 0
-471 -465 0
-471 -466 0
-471 -469 0
-472 0
-472 -465 0
-472 -466 0
-474 -475 0
-474 -476 0
-474 -479 0
-477 -476 0
-477 -479 0
-478 -479 0
-475 -474 0
-475 -478 0
-479 0
-479 -473 0
-479 -474 0
-479 -478 0
-480 -474 0
-476 -474 0
-476 -477 0
-479 0
-479 -473 0
-479 -474 0
-479 -477 0
-480 -474 0
-482 -483 0
-482 -484 0
-482 -487 0
-485 -484 0
-485 -487 0
-486 -487 0
-483 -482 0
-483 -484 0
-483 -486 0
-485 -486 0
-487 -482 0
-487 -486 0
-484 -482 0
-484 -483 0
-484 -485 0
-486 -485 0
-487 -482 0
-487 -485 0
-490 -491 0
-490 -492 0
-490 -495 0
-493 -492 0
-493 -495 0
-494 -495 0
-491 -490 0
-491 -492 0
-491 -494 0
-493 -494 0
-495 -490 0
-495 -494 0
-492 -490 0
-492 -491 0
-492 -493 0
-494 -491 0
-494 -493 0
-495 -493 0
-498 -499 0
-498 -500 0
-498 -503 0
-501 -500 0
-501 -503 0
-502 -503 0
-499 -498 0
-499 -500 0
-499 -502 0
-501 -500 0
-501 -502 0
-503 -502 0
-500 -498 0
-500 -499 0
-500 -501 0
-502 -501 0
-503 -498 0
-503 -501 0
-506 -507 0
-506 -508 0
-506 -511 0
-509 -508 0
-509 -511 0
-510 -511 0
-507 -506 0
-507 -508 0
-507 -510 0
-509 -508 0
-509 -510 0
-511 -510 0
-508 -506 0
-508 -507 0
-508 -509 0
-510 -507 0
-510 -509 0
-511 -509 0
